ssat_solver_solve2
#level: 2
Abc_NtkNodeNum(s->pNtk): 265  , BDD limit: 10240
Build BDD success
level 1: 15 element
Exist
level 0: 15 element
Random
c ssat solving in ABC
#var: 30
s SATISFIABLE
  > Upper bound = 1.065063e-02
  > Lower bound = 1.065063e-02
FINISHED CPU 0.13 MEM 60044 MAXMEM 60044 STALE 0 MAXMEM_RSS 17716
<time name="ALL">220</time>
real 0.27
user 0.27
sys 0.12
